SumColouring/JavaBacktracker/RandomInstances/28_0.15_1.col
c File: instances/28_0.15_1.col
c
c Description: Random graph of size 28 vertices and P(0.15000000000000002) of edges between any two vertices.
p col 28 378
e 1 2
e 2 14
e 2 16
e 2 23
e 3 5
e 3 9
e 3 17
e 3 24
e 3 27
e 4 9
e 4 12
e 4 22
e 4 27
e 4 28
e 5 7
e 5 26
e 6 8
e 6 10
e 6 11
e 7 9
e 7 16
e 7 21
e 7 28
e 8 16
e 8 22
e 9 12
e 9 14
e 9 19
e 9 21
e 9 28
e 10 21
e 10 24
e 11 22
e 14 22
e 16 21
e 16 23
e 16 27
e 17 18
e 17 20
e 17 22
e 17 28
e 19 20
e 21 24
e 21 26
e 22 27
e 23 24
e 24 25
e 24 28
e 27 28